DIMACS2
160 114 69 587 297 4 301 465 496 507 339 92 13 452 555 18 493 242 223 271 629 547 347 429 374 427 12 557 196 94 35 594 138 534 370 270 408 331 180 388 2 312 147 366 314 615 93 445 308 570 538 397 485 464 582 79 302 299 511 588 194 329 207 163 605 145 272 566 385 430 606 144 519 36 576 349 449 124 554 492 195 293 217 75 630 279 135 337 488 636 106 579 444 143 254 251 498 552 88 240 291 307 551 58 358 82 508 604 188 235 527 369 37 595 490 59 132 322 170 174 243 410 338 491 173 460 624 634 503 500 99 499 25 60 162 545 435 335 296 625 19 107 189 351 384 354 323 126 502 346 535 269 277 287 479 292 437 48 203 202 228
p edge 640 1368
e 0 493 2.0
e 0 89 1.0
e 1 526 1.0
e 1 246 1.0
e 2 52 30.0
e 2 37 27.0
e 3 137 1.0
e 3 182 1.0
e 4 45 16.0
e 4 588 7.0
e 4 427 18.0
e 4 435 17.0
e 5 377 1.0
e 5 251 16.0
e 6 531 1.0
e 6 583 1.0
e 7 232 1.0
e 7 335 21.0
e 8 264 1.0
e 8 118 1.0
e 9 104 1.0
e 9 51 1.0
e 10 421 1.0
e 10 128 2.0
e 11 98 1.0
e 11 384 40.0
e 12 366 13.0
e 12 315 10.0
e 12 624 33.0
e 12 188 2.0
e 13 104 19.0
e 13 354 49.0
e 13 322 9.0
e 14 413 1.0
e 14 502 29.0
e 15 144 4.0
e 15 557 1.0
e 16 325 1.0
e 16 617 1.0
e 17 418 1.0
e 17 56 1.0
e 18 55 34.0
e 18 204 20.0
e 18 195 46.0
e 18 511 31.0
e 18 566 4.0
e 19 367 30.0
e 19 264 21.0
e 20 539 1.0
e 20 311 1.0
e 21 71 1.0
e 21 349 11.0
e 22 389 1.0
e 22 486 1.0
e 23 420 1.0
e 23 547 34.0
e 24 270 29.0
e 24 376 1.0
e 25 480 27.0
e 25 619 28.0
e 25 615 33.0
e 26 347 40.0
e 26 421 1.0
e 27 370 28.0
e 27 452 10.0
e 28 88 44.0
e 28 49 1.0
e 29 25 37.0
e 29 136 2.0
e 30 447 1.0
e 30 355 2.0
e 31 220 1.0
e 31 109 1.0
e 32 605 21.0
e 32 475 1.0
e 33 377 1.0
e 33 278 1.0
e 34 286 2.0
e 34 314 29.0
e 35 80 1.0
e 35 264 31.0
e 35 202 1.0
e 35 488 26.0
e 36 16 25.0
e 36 122 28.0
e 37 238 3.0
e 37 118 26.0
e 37 534 29.0
e 37 369 29.0
e 38 116 3.0
e 38 114 30.0
e 39 272 29.0
e 39 241 1.0
e 40 600 1.0
e 40 246 2.0
e 41 11 2.0
e 41 59 41.0
e 42 330 1.0
e 42 599 2.0
e 43 194 48.0
e 43 279 39.0
e 44 81 1.0
e 44 579 1.0
e 45 384 43.0
e 45 248 1.0
e 46 298 1.0
e 46 270 33.0
e 47 431 1.0
e 47 634 21.0
e 48 557 13.0
e 48 355 11.0
e 49 215 1.0
e 49 579 10.0
e 50 224 1.0
e 50 46 1.0
e 51 166 2.0
e 51 158 1.0
e 52 338 10.0
e 52 470 2.0
e 53 164 1.0
e 53 297 23.0
e 54 369 18.0
e 54 497 1.0
e 55 73 2.0
e 55 204 1.0
e 56 63 3.0
e 56 83 2.0
e 57 194 3.0
e 57 472 1.0
e 58 587 28.0
e 58 255 9.0
e 58 60 33.0
e 58 269 13.0
e 59 527 7.0
e 59 297 45.0
e 60 600 42.0
e 60 151 8.0
e 61 19 37.0
e 61 627 1.0
e 62 405 2.0
e 62 565 2.0
e 63 532 2.0
e 63 571 2.0
e 64 546 2.0
e 64 111 1.0
e 65 43 1.0
e 65 393 2.0
e 66 388 10.0
e 66 80 1.0
e 67 469 2.0
e 67 284 1.0
e 68 14 1.0
e 68 556 1.0
e 69 0 12.0
e 69 48 17.0
e 70 255 1.0
e 70 59 47.0
e 71 501 2.0
e 71 87 1.0
e 72 121 1.0
e 72 611 1.0
e 73 140 2.0
e 73 346 26.0
e 74 462 5.0
e 74 140 5.0
e 75 252 12.0
e 75 497 8.0
e 75 170 37.0
e 76 613 1.0
e 76 124 1.0
e 77 314 42.0
e 77 355 1.0
e 78 542 1.0
e 78 597 1.0
e 79 363 2.0
e 79 149 45.0
e 80 442 1.0
e 80 305 3.0
e 81 595 26.0
e 81 121 1.0
e 82 471 19.0
e 82 57 2.0
e 82 507 37.0
e 82 566 28.0
e 83 227 1.0
e 83 78 2.0
e 84 319 1.0
e 84 296 49.0
e 85 352 1.0
e 85 276 1.0
e 86 215 1.0
e 86 525 1.0
e 87 41 1.0
e 87 577 1.0
e 88 435 24.0
e 88 113 18.0
e 89 412 1.0
e 89 349 25.0
e 90 597 1.0
e 90 239 1.0
e 91 324 2.0
e 91 298 1.0
e 92 226 45.0
e 92 360 14.0
e 92 615 45.0
e 93 303 14.0
e 93 60 26.0
e 94 289 2.0
e 94 156 42.0
e 94 144 12.0
e 94 551 17.0
e 95 491 29.0
e 95 338 42.0
e 96 463 1.0
e 96 108 1.0
e 97 344 2.0
e 97 264 1.0
e 98 2 48.0
e 98 377 1.0
e 99 293 19.0
e 99 492 21.0
e 99 106 20.0
e 99 535 26.0
e 100 46 1.0
e 100 523 1.0
e 101 340 1.0
e 101 491 25.0
e 102 618 1.0
e 102 293 20.0
e 103 301 26.0
e 103 524 2.0
e 104 404 2.0
e 104 185 1.0
e 105 634 42.0
e 105 207 5.0
e 106 170 11.0
e 106 171 33.0
e 106 107 28.0
e 106 594 21.0
e 107 74 42.0
e 107 623 19.0
e 108 447 1.0
e 108 456 2.0
e 109 540 1.0
e 109 593 2.0
e 110 90 1.0
e 110 586 2.0
e 111 249 2.0
e 111 298 2.0
e 112 228 15.0
e 112 433 1.0
e 113 226 2.0
e 113 276 1.0
e 114 510 46.0
e 114 230 31.0
e 115 140 1.0
e 115 291 13.0
e 116 150 1.0
e 116 168 1.0
e 117 275 1.0
e 117 423 1.0
e 118 310 2.0
e 118 88 42.0
e 119 269 25.0
e 119 337 10.0
e 120 526 1.0
e 120 314 41.0
e 121 527 14.0
e 121 425 1.0
e 122 77 1.0
e 122 232 1.0
e 123 254 20.0
e 123 302 23.0
e 124 104 25.0
e 124 286 5.0
e 125 528 2.0
e 125 549 2.0
e 126 527 12.0
e 126 371 47.0
e 127 19 15.0
e 127 574 2.0
e 128 333 1.0
e 128 218 1.0
e 129 594 44.0
e 129 181 1.0
e 130 8 1.0
e 130 606 36.0
e 131 151 1.0
e 131 276 1.0
e 132 320 26.0
e 132 124 34.0
e 132 292 49.0
e 132 138 28.0
e 133 451 1.0
e 133 509 1.0
e 134 216 1.0
e 134 399 1.0
e 135 283 44.0
e 135 458 35.0
e 136 490 16.0
e 136 556 1.0
e 137 127 1.0
e 137 630 6.0
e 138 352 47.0
e 138 286 47.0
e 138 287 30.0
e 139 589 1.0
e 139 217 11.0
e 140 517 1.0
e 140 474 1.0
e 141 120 1.0
e 141 319 1.0
e 142 75 36.0
e 142 597 1.0
e 143 350 6.0
e 143 206 6.0
e 143 464 1.0
e 143 551 46.0
e 144 196 39.0
e 144 69 6.0
e 144 279 6.0
e 145 458 6.0
e 145 449 29.0
e 145 147 39.0
e 146 514 1.0
e 146 217 36.0
e 147 231 1.0
e 147 552 28.0
e 147 437 20.0
e 148 364 1.0
e 148 373 2.0
e 149 174 14.0
e 149 614 1.0
e 150 231 2.0
e 150 207 2.0
e 151 449 1.0
e 151 67 1.0
e 152 386 1.0
e 152 78 2.0
e 153 368 1.0
e 153 312 8.0
e 154 54 1.0
e 154 449 30.0
e 155 509 1.0
e 155 43 1.0
e 156 629 20.0
e 156 524 1.0
e 157 51 1.0
e 157 535 25.0
e 158 113 2.0
e 158 624 11.0
e 159 465 27.0
e 159 73 2.0
e 160 486 1.0
e 160 406 2.0
e 161 561 1.0
e 161 438 1.0
e 162 251 41.0
e 162 509 45.0
e 162 485 33.0
e 162 170 35.0
e 163 416 13.0
e 163 255 9.0
e 164 371 2.0
e 164 70 1.0
e 165 218 1.0
e 165 446 1.0
e 166 339 35.0
e 166 621 1.0
e 167 371 1.0
e 167 291 32.0
e 168 191 1.0
e 168 520 2.0
e 169 487 2.0
e 169 570 3.0
e 170 419 38.0
e 170 67 24.0
e 171 41 1.0
e 171 361 2.0
e 172 334 1.0
e 172 59 27.0
e 173 612 35.0
e 173 31 29.0
e 174 110 49.0
e 174 441 18.0
e 174 180 22.0
e 175 166 1.0
e 175 257 1.0
e 176 89 1.0
e 176 406 2.0
e 177 435 32.0
e 177 305 2.0
e 178 419 2.0
e 178 221 1.0
e 179 272 43.0
e 179 1 1.0
e 180 30 19.0
e 180 88 7.0
e 180 189 41.0
e 181 588 43.0
e 181 576 48.0
e 182 324 1.0
e 182 408 2.0
e 183 367 1.0
e 183 317 1.0
e 184 198 1.0
e 184 567 2.0
e 185 343 1.0
e 185 576 21.0
e 186 78 1.0
e 186 30 1.0
e 187 43 1.0
e 187 470 2.0
e 188 571 18.0
e 188 7 33.0
e 189 550 18.0
e 189 431 48.0
e 189 195 17.0
e 190 247 1.0
e 190 77 1.0
e 191 404 1.0
e 191 353 3.0
e 192 296 18.0
e 192 576 44.0
e 193 480 1.0
e 193 5 1.0
e 194 23 5.0
e 194 24 25.0
e 195 374 49.0
e 195 396 1.0
e 195 384 2.0
e 196 194 24.0
e 196 497 3.0
e 197 601 1.0
e 197 47 1.0
e 198 416 2.0
e 198 357 2.0
e 199 428 1.0
e 199 393 1.0
e 200 529 1.0
e 200 626 2.0
e 201 112 1.0
e 201 348 1.0
e 202 573 1.0
e 202 26 6.0
e 203 596 35.0
e 203 199 7.0
e 203 223 20.0
e 203 228 16.0
e 203 490 21.0
e 204 200 1.0
e 204 234 1.0
e 205 584 3.0
e 205 557 8.0
e 206 424 1.0
e 206 583 1.0
e 207 315 13.0
e 207 634 42.0
e 208 441 1.0
e 208 88 41.0
e 209 310 1.0
e 209 318 1.0
e 210 85 1.0
e 210 546 1.0
e 211 486 2.0
e 211 534 30.0
e 212 583 1.0
e 212 153 2.0
e 213 136 1.0
e 213 56 1.0
e 214 347 32.0
e 214 540 3.0
e 215 576 30.0
e 215 389 1.0
e 216 495 1.0
e 216 275 2.0
e 217 525 17.0
e 217 245 15.0
e 218 185 1.0
e 218 479 37.0
e 219 105 3.0
e 219 339 20.0
e 220 238 1.0
e 220 40 1.0
e 221 128 1.0
e 221 220 1.0
e 222 582 11.0
e 222 158 1.0
e 223 484 19.0
e 223 237 27.0
e 223 235 22.0
e 224 104 1.0
e 224 221 1.0
e 225 386 2.0
e 225 310 1.0
e 226 367 1.0
e 226 163 45.0
e 227 180 18.0
e 227 592 1.0
e 228 561 16.0
e 228 48 16.0
e 229 451 1.0
e 229 217 39.0
e 230 79 42.0
e 230 293 22.0
e 231 424 1.0
e 231 118 1.0
e 232 159 2.0
e 232 425 1.0
e 233 460 8.0
e 233 568 1.0
e 234 353 2.0
e 234 169 2.0
e 235 45 19.0
e 235 142 33.0
e 235 493 1.0
e 235 538 6.0
e 236 35 31.0
e 236 218 2.0
e 237 81 1.0
e 237 588 24.0
e 238 433 1.0
e 238 143 44.0
e 239 491 1.0
e 239 314 28.0
e 240 350 41.0
e 240 460 47.0
e 241 547 40.0
e 241 391 1.0
e 242 101 10.0
e 242 48 26.0
e 242 554 34.0
e 242 354 11.0
e 243 172 18.0
e 243 212 21.0
e 243 254 15.0
e 244 522 1.0
e 244 570 5.0
e 245 51 1.0
e 245 258 1.0
e 246 486 1.0
e 246 398 1.0
e 247 596 1.0
e 247 333 1.0
e 248 632 1.0
e 248 628 1.0
e 249 207 1.0
e 249 159 1.0
e 250 126 29.0
e 250 173 26.0
e 251 467 30.0
e 251 558 15.0
e 252 628 1.0
e 252 122 1.0
e 253 107 44.0
e 253 413 1.0
e 254 492 1.0
e 254 423 34.0
e 255 49 1.0
e 255 179 1.0
e 256 38 1.0
e 256 65 2.0
e 257 102 1.0
e 257 165 1.0
e 258 267 1.0
e 258 44 1.0
e 259 262 1.0
e 259 518 1.0
e 260 141 1.0
e 260 64 1.0
e 261 359 2.0
e 261 313 1.0
e 262 321 1.0
e 262 61 2.0
e 263 240 45.0
e 263 473 2.0
e 264 560 1.0
e 264 281 1.0
e 265 529 1.0
e 265 585 1.0
e 266 464 12.0
e 266 22 5.0
e 267 412 1.0
e 267 333 1.0
e 268 493 13.0
e 268 318 3.0
e 269 614 5.0
e 269 617 29.0
e 270 58 14.0
e 270 112 22.0
e 270 271 19.0
e 271 65 42.0
e 271 75 9.0
e 271 272 30.0
e 271 287 9.0
e 272 545 31.0
e 272 147 42.0
e 273 481 1.0
e 273 128 2.0
e 274 295 1.0
e 274 424 2.0
e 275 80 1.0
e 275 283 2.0
e 276 429 5.0
e 276 351 32.0
e 277 128 22.0
e 277 545 17.0
e 278 543 2.0
e 278 266 5.0
e 279 233 7.0
e 279 91 21.0
e 280 98 1.0
e 280 537 1.0
e 281 457 1.0
e 281 566 11.0
e 282 140 1.0
e 282 90 1.0
e 283 45 2.0
e 283 320 1.0
e 284 573 1.0
e 284 62 1.0
e 285 591 1.0
e 285 546 1.0
e 286 430 13.0
e 286 625 2.0
e 287 632 37.0
e 287 305 3.0
e 287 292 38.0
e 288 112 3.0
e 288 163 8.0
e 289 36 43.0
e 289 279 14.0
e 290 415 1.0
e 290 408 43.0
e 291 458 40.0
e 291 389 24.0
e 292 559 46.0
e 292 483 16.0
e 292 322 22.0
e 293 118 16.0
e 293 635 32.0
e 294 172 2.0
e 294 386 2.0
e 295 479 32.0
e 295 128 3.0
e 296 446 3.0
e 296 79 2.0
e 297 376 12.0
e 297 532 36.0
e 298 577 2.0
e 298 482 1.0
e 299 122 26.0
e 299 559 46.0
e 299 554 41.0
e 299 323 32.0
e 300 333 2.0
e 300 447 1.0
e 301 138 29.0
e 301 565 28.0
e 301 444 40.0
e 302 580 33.0
e 302 526 30.0
e 302 307 19.0
e 303 421 1.0
e 303 407 1.0
e 304 328 1.0
e 304 587 19.0
e 305 631 1.0
e 305 9 1.0
e 306 174 35.0
e 306 193 2.0
e 307 330 37.0
e 307 133 32.0
e 308 123 13.0
e 308 253 49.0
e 308 410 28.0
e 308 366 41.0
e 308 615 39.0
e 309 518 1.0
e 309 503 7.0
e 310 81 1.0
e 310 427 13.0
e 311 485 27.0
e 311 550 2.0
e 312 81 4.0
e 312 562 21.0
e 312 397 9.0
e 313 273 1.0
e 313 89 1.0
e 314 412 17.0
e 314 523 47.0
e 315 538 3.0
e 315 451 1.0
e 316 370 44.0
e 316 142 1.0
e 317 426 1.0
e 317 365 1.0
e 318 45 1.0
e 318 109 2.0
e 319 93 41.0
e 320 450 1.0
e 320 346 39.0
e 321 198 1.0
e 321 588 19.0
e 322 109 39.0
e 322 600 31.0
e 323 545 32.0
e 323 600 29.0
e 324 9 1.0
e 324 291 14.0
e 325 262 2.0
e 325 44 1.0
e 326 374 33.0
e 326 441 2.0
e 327 635 2.0
e 327 592 1.0
e 328 28 1.0
e 328 256 1.0
e 329 598 49.0
e 329 163 43.0
e 329 366 39.0
e 329 331 5.0
e 329 385 24.0
e 330 553 1.0
e 330 140 1.0
e 331 450 46.0
e 331 636 31.0
e 331 582 12.0
e 331 335 9.0
e 332 365 2.0
e 332 251 49.0
e 333 338 8.0
e 333 290 2.0
e 334 491 23.0
e 334 360 1.0
e 335 587 47.0
e 335 370 17.0
e 335 410 31.0
e 336 330 1.0
e 336 79 36.0
e 337 387 35.0
e 337 636 30.0
e 337 595 9.0
e 338 359 43.0
e 338 479 21.0
e 339 450 42.0
e 339 165 24.0
e 340 71 1.0
e 340 458 1.0
e 341 182 3.0
e 341 173 33.0
e 342 69 8.0
e 342 181 2.0
e 343 88 30.0
e 343 551 40.0
e 344 77 2.0
e 344 408 29.0
e 345 542 1.0
e 345 145 45.0
e 346 137 37.0
e 346 485 23.0
e 347 154 6.0
e 347 612 14.0
e 348 76 2.0
e 348 16 1.0
e 349 446 45.0
e 349 322 10.0
e 350 101 1.0
e 350 110 1.0
e 351 60 24.0
e 351 296 39.0
e 351 358 37.0
e 351 369 29.0
e 352 388 36.0
e 352 277 38.0
e 353 438 1.0
e 353 584 1.0
e 354 632 39.0
e 354 471 42.0
e 355 108 1.0
e 355 78 1.0
e 356 588 13.0
e 356 396 2.0
e 357 554 7.0
e 357 607 1.0
e 358 568 12.0
e 358 29 5.0
e 358 629 25.0
e 359 343 1.0
e 359 529 1.0
e 360 380 1.0
e 360 302 6.0
e 361 325 2.0
e 361 405 1.0
e 362 207 31.0
e 362 430 39.0
e 363 402 2.0
e 363 622 1.0
e 364 118 1.0
e 364 346 27.0
e 365 283 1.0
e 365 464 38.0
e 366 15 42.0
e 366 77 28.0
e 367 330 2.0
e 367 388 5.0
e 368 117 2.0
e 368 330 2.0
e 369 12 10.0
e 369 202 20.0
e 370 574 10.0
e 370 114 9.0
e 371 514 1.0
e 371 479 33.0
e 372 70 1.0
e 372 621 1.0
e 373 201 1.0
e 373 480 1.0
e 374 94 24.0
e 374 523 43.0
e 375 129 1.0
e 375 528 2.0
e 376 477 1.0
e 376 300 1.0
e 377 223 38.0
e 377 381 1.0
e 378 169 2.0
e 378 413 1.0
e 379 403 1.0
e 379 341 1.0
e 380 595 44.0
e 380 275 1.0
e 381 456 1.0
e 381 189 32.0
e 382 305 1.0
e 382 185 1.0
e 383 532 2.0
e 383 14 1.0
e 384 69 25.0
e 384 62 2.0
e 385 63 46.0
e 385 429 44.0
e 385 397 1.0
e 385 604 30.0
e 386 395 2.0
e 386 215 2.0
e 387 36 31.0
e 387 336 1.0
e 388 467 4.0
e 388 570 20.0
e 389 245 1.0
e 389 559 1.0
e 390 150 1.0
e 390 465 39.0
e 391 436 1.0
e 391 80 1.0
e 392 585 2.0
e 392 31 1.0
e 393 444 15.0
e 393 92 49.0
e 394 221 2.0
e 394 341 1.0
e 395 581 2.0
e 395 411 1.0
e 396 2 12.0
e 396 434 1.0
e 397 563 9.0
e 397 466 26.0
e 398 205 1.0
e 398 212 1.0
e 399 514 2.0
e 399 569 1.0
e 400 191 1.0
e 400 227 1.0
e 401 326 2.0
e 401 477 1.0
e 402 243 43.0
e 402 263 1.0
e 403 428 2.0
e 403 260 1.0
e 404 636 26.0
e 404 524 1.0
e 405 150 1.0
e 405 11 1.0
e 406 378 1.0
e 406 427 48.0
e 407 182 2.0
e 407 611 2.0
e 408 482 44.0
e 408 598 38.0
e 409 381 3.0
e 409 631 1.0
e 410 275 17.0
e 410 470 3.0
e 411 570 12.0
e 411 388 25.0
e 412 260 1.0
e 412 374 28.0
e 413 268 2.0
e 413 526 1.0
e 414 333 1.0
e 414 4 21.0
e 415 135 18.0
e 415 291 34.0
e 416 313 1.0
e 416 356 2.0
e 417 286 1.0
e 417 491 27.0
e 418 175 1.0
e 418 559 1.0
e 419 137 1.0
e 419 91 3.0
e 420 121 1.0
e 420 484 2.0
e 421 404 1.0
e 421 431 1.0
e 422 541 1.0
e 422 173 9.0
e 423 582 14.0
e 423 168 1.0
e 424 380 1.0
e 424 491 31.0
e 425 610 1.0
e 425 276 1.0
e 426 196 19.0
e 426 457 1.0
e 427 300 24.0
e 427 397 19.0
e 428 91 2.0
e 428 314 41.0
e 429 334 35.0
e 429 337 10.0
e 430 274 3.0
e 430 84 49.0
e 431 445 39.0
e 431 524 1.0
e 432 80 1.0
e 432 85 1.0
e 433 63 2.0
e 433 7 1.0
e 434 530 1.0
e 434 499 33.0
e 435 390 34.0
e 435 478 38.0
e 436 421 1.0
e 436 98 1.0
e 437 43 15.0
e 437 135 30.0
e 437 445 39.0
e 437 555 34.0
e 438 583 2.0
e 438 495 1.0
e 439 607 1.0
e 439 478 1.0
e 440 129 1.0
e 440 448 1.0
e 441 430 1.0
e 441 267 1.0
e 442 172 2.0
e 442 21 1.0
e 443 65 1.0
e 443 114 40.0
e 444 99 7.0
e 444 294 6.0
e 445 163 24.0
e 445 547 6.0
e 446 260 1.0
e 446 6 1.0
e 447 496 27.0
e 447 120 1.0
e 448 123 1.0
e 448 298 1.0
e 449 488 48.0
e 449 502 14.0
e 450 155 1.0
e 450 306 1.0
e 451 386 1.0
e 451 490 16.0
e 452 334 11.0
e 452 185 23.0
e 452 496 35.0
e 453 446 1.0
e 453 178 1.0
e 454 51 1.0
e 455 137 1.0
e 455 423 1.0
e 456 225 1.0
e 456 20 2.0
e 457 243 36.0
e 457 440 1.0
e 458 319 1.0
e 458 514 1.0
e 459 492 4.0
e 459 178 1.0
e 460 386 14.0
e 460 21 4.0
e 461 491 3.0
e 461 561 1.0
e 462 563 1.0
e 462 295 1.0
e 463 409 2.0
e 463 621 3.0
e 464 20 18.0
e 464 167 19.0
e 465 631 20.0
e 465 10 41.0
e 465 496 34.0
e 466 528 1.0
e 466 188 46.0
e 467 342 1.0
e 467 597 2.0
e 468 269 28.0
e 468 213 2.0
e 469 49 1.0
e 469 548 3.0
e 470 72 1.0
e 470 532 1.0
e 471 57 1.0
e 471 393 1.0
e 472 48 34.0
e 472 613 1.0
e 473 301 34.0
e 473 68 2.0
e 474 592 1.0
e 474 252 2.0
e 475 205 2.0
e 475 291 42.0
e 476 199 1.0
e 476 33 1.0
e 477 578 2.0
e 477 392 3.0
e 478 441 1.0
e 478 220 1.0
e 479 265 9.0
e 479 158 19.0
e 480 522 1.0
e 480 139 1.0
e 481 452 14.0
e 481 584 1.0
e 482 508 45.0
e 482 483 1.0
e 483 318 1.0
e 483 408 28.0
e 484 191 1.0
e 484 470 1.0
e 485 442 32.0
e 485 333 35.0
e 486 579 25.0
e 486 364 1.0
e 487 361 1.0
e 487 82 16.0
e 488 469 2.0
e 488 323 26.0
e 489 277 29.0
e 489 141 1.0
e 490 108 27.0
e 490 246 48.0
e 491 339 39.0
e 491 117 41.0
e 492 426 24.0
e 492 277 12.0
e 493 568 23.0
e 493 636 32.0
e 494 178 1.0
e 494 146 4.0
e 495 124 15.0
e 495 28 1.0
e 496 93 42.0
e 496 345 36.0
e 497 449 23.0
e 497 157 1.0
e 498 547 15.0
e 498 500 3.0
e 498 499 19.0
e 498 502 29.0
e 499 129 29.0
e 499 307 21.0
e 499 500 5.0
e 500 422 47.0
e 500 2 44.0
e 501 376 2.0
e 501 196 36.0
e 502 460 34.0
e 502 209 8.0
e 503 212 5.0
e 503 592 18.0
e 504 212 1.0
e 504 462 1.0
e 505 316 1.0
e 505 172 1.0
e 506 254 41.0
e 506 43 1.0
e 507 350 36.0
e 507 242 22.0
e 507 604 4.0
e 507 508 1.0
e 508 2 11.0
e 508 374 4.0
e 509 424 1.0
e 509 387 1.0
e 510 294 1.0
e 510 461 1.0
e 511 179 27.0
e 511 539 28.0
e 511 519 45.0
e 511 538 40.0
e 512 370 46.0
e 512 39 2.0
e 513 494 1.0
e 513 453 1.0
e 514 84 1.0
e 514 550 1.0
e 515 64 2.0
e 515 140 1.0
e 516 172 1.0
e 516 625 47.0
e 517 417 1.0
e 517 516 2.0
e 518 532 2.0
e 518 637 1.0
e 519 510 30.0
e 519 618 31.0
e 519 555 13.0
e 519 604 31.0
e 520 148 1.0
e 520 127 2.0
e 521 349 2.0
e 521 471 3.0
e 522 262 1.0
e 522 318 1.0
e 523 307 29.0
e 523 363 2.0
e 524 541 1.0
e 524 568 1.0
e 525 209 1.0
e 525 24 2.0
e 526 299 7.0
e 526 333 1.0
e 527 13 16.0
e 527 415 43.0
e 528 558 1.0
e 528 492 13.0
e 529 141 1.0
e 529 193 1.0
e 530 567 2.0
e 530 21 1.0
e 531 224 1.0
e 531 61 2.0
e 532 208 1.0
e 532 575 1.0
e 533 622 1.0
e 533 22 1.0
e 534 216 20.0
e 534 471 43.0
e 535 450 21.0
e 535 39 26.0
e 536 156 1.0
e 536 446 1.0
e 537 524 1.0
e 537 391 1.0
e 538 407 29.0
e 538 503 31.0
e 539 607 2.0
e 539 192 1.0
e 540 56 1.0
e 540 1 2.0
e 541 509 2.0
e 541 120 1.0
e 542 275 1.0
e 542 245 1.0
e 543 553 1.0
e 543 240 10.0
e 544 107 39.0
e 544 231 1.0
e 545 221 5.0
e 545 79 38.0
e 546 473 1.0
e 546 93 12.0
e 547 574 49.0
e 547 70 9.0
e 548 240 21.0
e 548 81 2.0
e 549 470 2.0
e 549 126 30.0
e 550 423 1.0
e 550 457 1.0
e 551 59 8.0
e 551 612 8.0
e 552 534 34.0
e 552 164 48.0
e 553 89 1.0
e 553 135 9.0
e 554 500 39.0
e 554 610 35.0
e 555 319 14.0
e 555 410 4.0
e 555 605 28.0
e 556 548 1.0
e 556 317 1.0
e 557 79 30.0
e 557 13 46.0
e 558 445 39.0
e 558 175 1.0
e 559 19 13.0
e 559 167 1.0
e 560 535 48.0
e 560 142 1.0
e 561 613 1.0
e 561 367 1.0
e 562 512 2.0
e 562 416 1.0
e 563 164 2.0
e 563 436 1.0
e 564 175 1.0
e 564 508 40.0
e 565 208 1.0
e 565 431 1.0
e 566 132 33.0
e 566 98 16.0
e 567 388 42.0
e 567 559 2.0
e 568 370 3.0
e 568 84 1.0
e 569 122 2.0
e 569 354 26.0
e 570 66 17.0
e 570 199 9.0
e 571 517 1.0
e 571 231 1.0
e 572 579 41.0
e 572 105 3.0
e 573 581 1.0
e 573 167 2.0
e 574 109 1.0
e 574 444 27.0
e 575 503 38.0
e 575 284 3.0
e 576 396 38.0
e 576 358 48.0
e 577 126 22.0
e 577 536 1.0
e 578 480 1.0
e 578 140 2.0
e 579 81 25.0
e 579 626 46.0
e 580 285 1.0
e 580 256 1.0
e 581 253 1.0
e 581 594 47.0
e 582 364 14.0
e 582 563 4.0
e 583 177 2.0
e 583 396 1.0
e 584 365 1.0
e 584 25 36.0
e 585 240 12.0
e 585 562 3.0
e 586 309 1.0
e 586 244 1.0
e 587 46 16.0
e 587 576 30.0
e 588 360 17.0
e 588 616 16.0
e 589 50 1.0
e 589 188 45.0
e 590 313 3.0
e 590 136 2.0
e 591 153 2.0
e 591 277 39.0
e 592 430 10.0
e 592 164 3.0
e 593 129 1.0
e 593 411 1.0
e 594 162 49.0
e 594 398 22.0
e 595 361 12.0
e 595 579 31.0
e 596 128 1.0
e 596 115 1.0
e 597 461 2.0
e 597 473 2.0
e 598 121 1.0
e 598 391 1.0
e 599 494 2.0
e 599 480 1.0
e 600 56 1.0
e 600 624 5.0
e 601 166 1.0
e 601 552 28.0
e 602 182 1.0
e 602 338 43.0
e 603 387 1.0
e 603 476 1.0
e 604 15 33.0
e 604 309 23.0
e 605 478 9.0
e 605 253 25.0
e 605 606 32.0
e 606 316 38.0
e 606 373 31.0
e 606 625 42.0
e 607 365 1.0
e 607 371 1.0
e 608 123 1.0
e 608 190 1.0
e 609 531 1.0
e 609 552 5.0
e 610 14 2.0
e 610 558 2.0
e 611 353 1.0
e 611 398 1.0
e 612 402 1.0
e 612 95 1.0
e 613 278 1.0
e 613 145 11.0
e 614 453 1.0
e 614 92 5.0
e 615 281 3.0
e 615 479 35.0
e 616 498 24.0
e 616 488 39.0
e 617 202 14.0
e 617 340 1.0
e 618 440 1.0
e 618 429 30.0
e 619 16 1.0
e 619 469 2.0
e 620 150 1.0
e 620 295 1.0
e 621 208 1.0
e 621 297 8.0
e 622 528 1.0
e 622 232 1.0
e 623 312 33.0
e 623 294 2.0
e 624 348 8.0
e 624 228 16.0
e 625 325 17.0
e 625 67 8.0
e 626 614 2.0
e 626 112 1.0
e 627 359 2.0
e 627 291 3.0
e 628 450 1.0
e 628 494 1.0
e 629 36 31.0
e 629 597 13.0
e 629 630 15.0
e 630 483 28.0
e 630 463 48.0
e 631 238 1.0
e 631 323 15.0
e 632 347 25.0
e 632 473 2.0
e 633 164 1.0
e 633 293 42.0
e 634 621 2.0
e 634 540 49.0
e 635 531 1.0
e 635 215 3.0
e 636 345 15.0
e 636 628 13.0
e 637 352 1.0
e 637 612 1.0
e 638 440 2.0
e 638 628 1.0
e 639 371 1.0
e 639 434 3.0
